\ Model Routes
\ LP format - for model browsing. Use MPS format to capture full model detail.
Maximize
  1273.696206194839 R{0,0} + 2332.147024458567 R{0,1}
   + 2332.147024458567 R{0,2} - 249.2301939667805 R{0,3}
   + 234.7650315204939 R{0,4} + 397.2891588355392 R{0,5}
   + 1318.333255398437 R{0,6} + 1605.374282593594 R{0,7}
   + 1208.149995527797 R{0,8} + 1584.784790411174 R{0,9}
   + 2149.311161146882 R{0,10} + 1339.554311935617 R{0,11}
   + 2270.539256721511 R{0,12} + 2352.067310942949 R{0,13}
   + 2145.634646898594 R{0,14} + 208.2575518527582 R{0,15}
   + 2918.431024824536 R{0,16} - 256.140831891889 R{1,0}
   + 22.55008804458731 R{1,1} + 1141.439937477706 R{1,2}
   + 1141.439937477706 R{1,3} + 907.3427490747531 R{1,4}
   + 1874.802529533631 R{1,5} + 1845.257938198596 R{1,6}
   + 1696.894626005613 R{1,7} + 1182.695638626185 R{1,8}
   + 798.5325037957452 R{1,9} + 1390.784372962588 R{1,10}
   + 267.090317402157 R{1,11} + 2612.849244305804 R{1,12}
   - 278.4443928850388 R{2,0} - 59.13410337035452 R{2,1}
   + 602.7748664658451 R{2,2} + 1100.505917706273 R{2,3}
   + 661.1183809175574 R{2,4} + 254.2765511022717 R{2,5}
   + 851.6325612165692 R{2,6} - 260.2482995389823 R{3,0}
   + 967.7221973521264 R{3,1} + 2038.112677924125 R{3,2}
   + 2399.115395194246 R{3,3} + 1085.997642264585 R{3,4}
   + 2135.014828162381 R{3,5} + 2152.403390064094 R{3,6}
   + 1914.931408859124 R{3,7} + 1819.153938752348 R{3,8}
   + 1141.112537215213 R{3,9} + 1377.834742481958 R{3,10}
   + 1498.832404403269 R{3,11} + 1287.55628857797 R{3,12}
   + 1859.905051853306 R{3,13} - 242.5208875955131 R{4,0}
   + 796.0404748373853 R{4,1} + 1316.664574514046 R{4,2}
   + 1355.227663885629 R{4,3} + 670.1923682388592 R{4,4}
   + 1571.209348401565 R{4,5} + 983.6505041727692 R{4,6}
   + 1105.794677281656 R{4,7} + 458.9696969194101 R{4,8}
   + 831.4949815245545 R{4,9} + 1564.567751958692 R{4,10}
   + 471.7966072993149 R{4,11} + 983.6505041727692 R{4,12}
   + 510.7448718544174 R{4,13} + 623.9521299475298 R{4,14}
   - 231.9775664337766 R{5,0} + 40.49903117334031 R{5,1}
   + 364.0546919427258 R{5,2} + 53.89426485381171 R{5,3}
   + 242.8727115240265 R{5,4} + 895.7654239492247 R{5,5}
   + 806.5077242510608 R{5,6} + 413.4179380198296 R{5,7}
   - 231.1436095783099 R{6,0} + 120.1285528432641 R{6,1}
   + 1144.238169502638 R{6,2} + 1709.383530245978 R{6,3}
   + 1597.212900782997 R{6,4} + 202.0493940262086 R{6,5}
   + 1174.234073642188 R{6,6} + 1619.639381360134 R{6,7}
   + 561.1827702132043 R{6,8} + 1463.009977610463 R{6,9}
   + 1175.016075952706 R{6,10} + 1138.722202404931 R{6,11}
Subject To
 R00: R{0,0} <= 1
 R01: R{0,1} <= 1
 R02: R{0,2} <= 1
 R03: R{0,3} <= 1
 R04: R{0,4} <= 1
 R05: R{0,5} <= 1
 R06: R{0,6} <= 1
 R07: R{0,7} <= 1
 R08: R{0,8} <= 1
 R09: R{0,9} <= 1
 R010: R{0,10} <= 1
 R011: R{0,11} <= 1
 R012: R{0,12} <= 1
 R013: R{0,13} <= 1
 R014: R{0,14} <= 1
 R015: R{0,15} <= 1
 R016: R{0,16} <= 1
 R017: R{1,0} <= 1
 R018: R{1,1} <= 1
 R019: R{1,2} <= 1
 R020: R{1,3} <= 1
 R021: R{1,4} <= 1
 R022: R{1,5} <= 1
 R023: R{1,6} <= 1
 R024: R{1,7} <= 1
 R025: R{1,8} <= 1
 R026: R{1,9} <= 1
 R027: R{1,10} <= 1
 R028: R{1,11} <= 1
 R029: R{1,12} <= 1
 R030: R{2,0} <= 1
 R031: R{2,1} <= 1
 R032: R{2,2} <= 1
 R033: R{2,3} <= 1
 R034: R{2,4} <= 1
 R035: R{2,5} <= 1
 R036: R{2,6} <= 1
 R037: R{3,0} <= 1
 R038: R{3,1} <= 1
 R039: R{3,2} <= 1
 R040: R{3,3} <= 1
 R041: R{3,4} <= 1
 R042: R{3,5} <= 1
 R043: R{3,6} <= 1
 R044: R{3,7} <= 1
 R045: R{3,8} <= 1
 R046: R{3,9} <= 1
 R047: R{3,10} <= 1
 R048: R{3,11} <= 1
 R049: R{3,12} <= 1
 R050: R{3,13} <= 1
 R051: R{4,0} <= 1
 R052: R{4,1} <= 1
 R053: R{4,2} <= 1
 R054: R{4,3} <= 1
 R055: R{4,4} <= 1
 R056: R{4,5} <= 1
 R057: R{4,6} <= 1
 R058: R{4,7} <= 1
 R059: R{4,8} <= 1
 R060: R{4,9} <= 1
 R061: R{4,10} <= 1
 R062: R{4,11} <= 1
 R063: R{4,12} <= 1
 R064: R{4,13} <= 1
 R065: R{4,14} <= 1
 R066: R{5,0} <= 1
 R067: R{5,1} <= 1
 R068: R{5,2} <= 1
 R069: R{5,3} <= 1
 R070: R{5,4} <= 1
 R071: R{5,5} <= 1
 R072: R{5,6} <= 1
 R073: R{5,7} <= 1
 R074: R{6,0} <= 1
 R075: R{6,1} <= 1
 R076: R{6,2} <= 1
 R077: R{6,3} <= 1
 R078: R{6,4} <= 1
 R079: R{6,5} <= 1
 R080: R{6,6} <= 1
 R081: R{6,7} <= 1
 R082: R{6,8} <= 1
 R083: R{6,9} <= 1
 R084: R{6,10} <= 1
 R085: R{6,11} <= 1
 R1_0: R{0,0} + R{0,1} + R{0,2} + R{0,3} + R{0,4} + R{0,5} + R{0,6}
   + R{0,7} + R{0,8} + R{0,9} + R{0,10} + R{0,11} + R{0,12} + R{0,13}
   + R{0,14} + R{0,15} + R{0,16} <= 1
 R1_1: R{1,0} + R{1,1} + R{1,2} + R{1,3} + R{1,4} + R{1,5} + R{1,6}
   + R{1,7} + R{1,8} + R{1,9} + R{1,10} + R{1,11} + R{1,12} <= 1
 R1_2: R{2,0} + R{2,1} + R{2,2} + R{2,3} + R{2,4} + R{2,5} + R{2,6} <= 1
 R1_3: R{3,0} + R{3,1} + R{3,2} + R{3,3} + R{3,4} + R{3,5} + R{3,6}
   + R{3,7} + R{3,8} + R{3,9} + R{3,10} + R{3,11} + R{3,12} + R{3,13} <= 1
 R1_4: R{4,0} + R{4,1} + R{4,2} + R{4,3} + R{4,4} + R{4,5} + R{4,6}
   + R{4,7} + R{4,8} + R{4,9} + R{4,10} + R{4,11} + R{4,12} + R{4,13}
   + R{4,14} <= 1
 R1_5: R{5,0} + R{5,1} + R{5,2} + R{5,3} + R{5,4} + R{5,5} + R{5,6}
   + R{5,7} <= 1
 R1_6: R{6,0} + R{6,1} + R{6,2} + R{6,3} + R{6,4} + R{6,5} + R{6,6}
   + R{6,7} + R{6,8} + R{6,9} + R{6,10} + R{6,11} <= 1
 R2_0: 7 R{0,0} + 7 R{0,1} + 7 R{0,2} + 7 R{0,6} + 7 R{0,7} + 7 R{0,8}
   + 7 R{0,9} + 7 R{0,10} + 7 R{0,11} + 7 R{0,12} + 7 R{0,13} + 7 R{0,14}
   + 7 R{0,16} <= 7
 R2_1: 10 R{2,5} + 10 R{3,1} + 10 R{3,2} + 10 R{3,3} + 10 R{3,4}
   + 10 R{3,6} + 10 R{3,9} + 10 R{3,13} + 10 R{5,4} + 10 R{5,5} + 10 R{5,6}
   <= 10
 R2_2: <= 0
 R2_3: 4 R{1,5} + 4 R{1,6} + 4 R{1,7} + 4 R{1,8} + 4 R{5,1} + 4 R{5,2}
   + 4 R{5,3} <= 4
 R2_4: <= 0
 R2_5: 5 R{5,1} + 5 R{5,2} + 5 R{5,3} + 5 R{5,5} <= 5
 R2_6: 10 R{0,10} + 10 R{0,15} + 10 R{3,12} + 10 R{6,1} + 10 R{6,2}
   + 10 R{6,3} + 10 R{6,5} + 10 R{6,6} + 10 R{6,7} + 10 R{6,8} + 10 R{6,9}
   + 10 R{6,10} + 10 R{6,11} <= 10
 R2_7: <= 0
 R2_8: <= 0
 R2_9: 12 R{4,1} + 12 R{4,2} + 12 R{4,3} + 12 R{4,4} + 12 R{4,5}
   + 12 R{4,6} + 12 R{4,7} + 12 R{4,8} + 12 R{4,9} + 12 R{4,10}
   + 12 R{4,11} + 12 R{4,12} + 12 R{4,13} + 12 R{4,14} <= 12
 R2_10: 8 R{6,1} + 8 R{6,2} + 8 R{6,3} + 8 R{6,4} + 8 R{6,5} + 8 R{6,7}
   + 8 R{6,9} <= 8
 R2_11: <= 0
 R2_12: <= 0
 R2_13: <= 0
 R2_14: <= 0
 R2_15: 11 R{0,0} + 11 R{0,1} + 11 R{0,2} + 11 R{0,6} + 11 R{0,10}
   + 11 R{0,12} + 11 R{0,13} + 11 R{0,16} + 11 R{4,1} + 11 R{4,2}
   + 11 R{4,3} + 11 R{4,8} + 11 R{4,9} + 11 R{4,11} <= 11
 R2_16: 5 R{0,14} <= 5
 R2_17: 11 R{3,10} <= 11
 R2_18: 5 R{0,14} <= 5
 R2_19: 11 R{0,14} + 11 R{1,4} + 11 R{1,5} + 11 R{1,6} + 11 R{1,7}
   + 11 R{1,10} + 11 R{3,7} + 11 R{4,1} + 11 R{4,2} + 11 R{4,3} + 11 R{4,4}
   + 11 R{4,5} + 11 R{4,6} + 11 R{4,7} + 11 R{4,9} + 11 R{4,10}
   + 11 R{4,12} + 11 R{5,6} + 11 R{5,7} <= 11
 R2_20: 13 R{0,5} + 13 R{0,16} + 13 R{1,12} + 13 R{2,3} + 13 R{2,6}
   + 13 R{3,1} + 13 R{3,2} + 13 R{3,3} + 13 R{3,5} + 13 R{3,6} + 13 R{3,7}
   + 13 R{3,8} + 13 R{3,9} + 13 R{3,11} + 13 R{5,2} + 13 R{5,5} <= 13
 R2_21: <= 0
 R2_22: 10 R{4,13} <= 10
 R2_23: 14 R{4,5} + 14 R{4,7} + 14 R{6,2} + 14 R{6,3} + 14 R{6,4}
   + 14 R{6,6} + 14 R{6,7} + 14 R{6,9} + 14 R{6,10} <= 14
 R2_24: 10 R{0,16} + 10 R{1,5} + 10 R{1,9} + 10 R{1,12} + 10 R{3,1}
   + 10 R{3,2} + 10 R{3,3} + 10 R{3,4} + 10 R{3,5} + 10 R{3,6} + 10 R{3,8}
   + 10 R{3,11} + 10 R{3,13} <= 10
 R2_25: 13 R{0,0} + 13 R{0,1} + 13 R{0,2} + 13 R{0,6} + 13 R{0,7}
   + 13 R{0,8} + 13 R{0,9} + 13 R{0,10} + 13 R{0,11} + 13 R{0,12}
   + 13 R{0,13} + 13 R{0,14} + 13 R{0,16} + 13 R{3,10} + 13 R{4,1}
   + 13 R{4,2} + 13 R{4,3} + 13 R{4,4} + 13 R{4,5} + 13 R{4,6} + 13 R{4,7}
   + 13 R{4,8} + 13 R{4,12} + 13 R{4,14} <= 13
 R2_26: 6 R{1,1} + 6 R{1,2} + 6 R{1,3} + 6 R{1,5} + 6 R{1,6} + 6 R{1,7}
   + 6 R{1,8} + 6 R{1,10} + 6 R{1,11} + 6 R{1,12} <= 6
 R2_27: 5 R{0,6} + 5 R{0,9} + 5 R{0,13} + 5 R{1,2} + 5 R{1,3} + 5 R{1,4}
   + 5 R{1,5} + 5 R{1,6} + 5 R{1,7} + 5 R{1,8} + 5 R{1,9} + 5 R{1,12}
   + 5 R{6,7} <= 5
 R2_28: <= 0
 R2_29: <= 0
 R2_30: <= 0
 R2_31: 6 R{6,1} + 6 R{6,2} + 6 R{6,5} + 6 R{6,6} + 6 R{6,8} + 6 R{6,9}
   + 6 R{6,10} <= 6
 R2_32: 7 R{0,4} + 7 R{0,5} + 7 R{0,15} + 7 R{1,11} + 7 R{5,7} <= 7
 R2_33: 12 R{1,8} + 12 R{3,8} + 12 R{3,11} <= 12
 R2_34: 5 R{0,0} + 5 R{0,1} + 5 R{0,2} + 5 R{0,6} + 5 R{0,7} + 5 R{0,8}
   + 5 R{0,9} + 5 R{0,10} + 5 R{0,11} + 5 R{0,12} + 5 R{0,13} + 5 R{0,14}
   + 5 R{6,9} <= 5
 R2_35: <= 0
 R2_36: 15 R{1,1} + 15 R{1,2} + 15 R{1,3} + 15 R{1,5} + 15 R{1,6}
   + 15 R{1,10} + 15 R{1,12} <= 16
 R2_37: 5 R{1,11} + 5 R{3,10} + 5 R{5,1} + 5 R{5,3} + 5 R{5,4} <= 5
 R2_38: <= 0
 R2_39: 15 R{0,0} + 15 R{0,1} + 15 R{0,2} + 15 R{0,6} + 15 R{0,7}
   + 15 R{0,8} + 15 R{0,9} + 15 R{0,10} + 15 R{0,13} <= 17
 R2_40: 15 R{2,1} + 15 R{2,2} + 15 R{2,3} + 15 R{2,4} + 15 R{2,5}
   + 15 R{3,12} <= 15
 R2_41: 5 R{0,0} + 5 R{0,1} + 5 R{0,2} + 5 R{0,7} + 5 R{0,8} + 5 R{0,9}
   + 5 R{0,10} + 5 R{0,11} + 5 R{0,13} + 5 R{0,14} + 5 R{0,16} + 5 R{1,4}
   + 5 R{1,6} + 5 R{1,7} + 5 R{1,9} + 5 R{1,12} + 5 R{3,2} + 5 R{3,3}
   + 5 R{3,5} + 5 R{3,7} + 5 R{4,9} + 5 R{4,10} + 5 R{4,11} + 5 R{6,4}
   <= 5
 R2_42: 4 R{2,1} + 4 R{2,2} + 4 R{2,3} + 4 R{2,4} + 4 R{2,5} <= 4
 R2_43: <= 0
 R2_44: <= 0
 R2_45: <= 0
 R2_46: 9 R{0,11} + 9 R{0,12} + 9 R{0,16} + 9 R{4,10} + 9 R{6,4} <= 9
 R2_47: 7 R{0,0} + 7 R{0,1} + 7 R{0,2} + 7 R{0,7} + 7 R{0,8} + 7 R{0,12}
   + 7 R{1,1} + 7 R{1,2} + 7 R{1,3} + 7 R{1,4} <= 7
 R2_48: 4 R{4,1} + 4 R{4,2} + 4 R{4,3} + 4 R{4,4} + 4 R{4,6} + 4 R{4,7}
   + 4 R{4,8} + 4 R{4,9} + 4 R{4,10} + 4 R{4,11} + 4 R{4,12} + 4 R{4,13}
   + 4 R{4,14} <= 4
 R2_49: <= 0
 R2_50: <= 0
 R2_51: <= 0
 R2_52: <= 0
 R2_53: 13 R{4,1} + 13 R{4,2} + 13 R{4,3} + 13 R{4,4} + 13 R{4,5}
   + 13 R{4,7} + 13 R{4,8} + 13 R{4,9} + 13 R{4,11} <= 13
 R2_54: 9 R{3,1} + 9 R{3,2} + 9 R{3,3} + 9 R{3,4} + 9 R{3,5} + 9 R{3,6}
   + 9 R{3,7} + 9 R{3,9} + 9 R{3,12} + 9 R{3,13} <= 9
 R2_55: 8 R{3,12} <= 8
 R2_56: 6 R{0,1} + 6 R{0,2} + 6 R{0,7} + 6 R{0,12} + 6 R{0,14} + 6 R{0,16}
   + 6 R{1,6} + 6 R{1,8} + 6 R{1,12} + 6 R{3,2} + 6 R{3,3} + 6 R{3,4}
   + 6 R{3,5} + 6 R{3,6} + 6 R{3,7} + 6 R{3,9} + 6 R{3,10} + 6 R{3,13}
   + 6 R{4,6} + 6 R{4,10} + 6 R{4,12} + 6 R{4,14} + 6 R{6,2} + 6 R{6,3}
   + 6 R{6,4} + 6 R{6,8} + 6 R{6,9} + 6 R{6,11} <= 6
 R2_57: <= 0
 R2_58: <= 0
 R2_59: 10 R{3,6} + 10 R{3,8} + 10 R{3,10} + 10 R{3,11} + 10 R{3,12}
   + 9 R{3,13} + 10 R{4,13} <= 10
 R2_60: <= 0
 R2_61: 9 R{3,8} + 9 R{3,11} + 9 R{3,12} <= 9
 R2_62: <= 0
 R2_63: <= 0
 R2_64: <= 0
 R2_65: <= 5
 R2_66: 7 R{1,6} + 7 R{1,7} + 7 R{1,8} <= 7
 R2_67: 3 R{0,6} + 3 R{3,2} + 3 R{3,3} + 3 R{3,4} + 3 R{3,5} + 3 R{3,6}
   + 3 R{3,7} + 3 R{3,8} + 3 R{3,11} + 3 R{3,12} + 3 R{6,6} + 3 R{6,10}
   <= 3
 R2_68: 6 R{4,1} + 6 R{4,8} <= 6
 R2_69: <= 7
 R2_70: 11 R{6,1} + 11 R{6,2} + 11 R{6,3} + 11 R{6,5} + 11 R{6,6}
   + 11 R{6,7} + 11 R{6,8} + 11 R{6,10} + 11 R{6,11} <= 11
 R2_71: 7 R{0,12} + 7 R{3,1} + 7 R{3,2} + 7 R{3,3} + 7 R{3,5} + 7 R{3,7}
   + 7 R{3,9} + 7 R{3,10} + 7 R{6,2} + 7 R{6,3} + 7 R{6,4} + 7 R{6,6}
   + 7 R{6,9} + 7 R{6,10} <= 7
 R2_72: <= 0
 R2_73: 11 R{0,0} + 11 R{0,1} + 11 R{0,2} + 11 R{0,7} + 11 R{0,8}
   + 11 R{0,9} + 11 R{0,10} + 11 R{0,11} + 11 R{0,12} + 11 R{0,13}
   + 11 R{0,14} + 11 R{0,16} <= 11
 R2_74: 5 R{5,1} + 5 R{5,2} + 5 R{5,3} + 5 R{5,4} + 5 R{5,5} + 5 R{5,6}
   + 5 R{5,7} <= 5
 R2_75: 8 R{6,1} + 8 R{6,2} + 8 R{6,3} + 8 R{6,4} + 8 R{6,5} + 8 R{6,6}
   + 8 R{6,7} + 8 R{6,8} + 8 R{6,9} + 8 R{6,10} + 8 R{6,11} <= 8
 R2_76: 12 R{0,4} + 12 R{1,7} + 12 R{1,10} + 12 R{3,3} + 12 R{3,5}
   + 12 R{3,6} + 12 R{3,8} + 12 R{3,10} + 5 R{3,13} + 12 R{5,5} + 12 R{5,6}
   <= 12
 R2_77: 7 R{0,1} + 7 R{0,2} + 7 R{0,10} + 7 R{0,12} + 7 R{0,13} + 7 R{0,16}
   + 7 R{1,2} + 7 R{1,3} + 7 R{1,5} + 7 R{1,10} + 7 R{1,12} + 7 R{2,2}
   + 7 R{2,3} + 7 R{2,4} + 7 R{2,6} + 7 R{3,13} + 7 R{4,2} + 7 R{4,3}
   + 7 R{4,5} + 7 R{6,3} + 7 R{6,7} + 7 R{6,11} <= 7
Bounds
End
